(declare-fun a () String)
(declare-fun b () String)
(declare-fun c () String)
(declare-fun d () String)
(declare-fun e () String)
(declare-fun f () String)
(declare-fun g () String)
(declare-fun h () String)
(declare-fun i () String)
(assert (= c (str.++ a b)))
(assert (= d "b"))
(assert (= f (str.++ c d)))
(assert (distinct "c"))
(assert (= g (str.++ f e)))
(assert (distinct h "ab"))
(assert (= i (str.++ g h)))
(assert (str.in.re i (str.to.re "abc")))
(check-sat)
